28 28
22
3 3 7 6
3 4 25 24
3 5 4 0
3 6 7 0
3 7 15 21
3 8 25 16
3 9 12 19
3 10 12 9
3 11 22 17
3 16 25 0
3 17 22 0
3 21 15 0
3 23 4 5
4 3 0 25
4 4 0 21
4 5 18 0
4 8 0 0
4 13 0 8
4 23 18 5
5 6 7 22
5 9 10 0
5 13 7 9
% time elapsed: 46.40 s
% time elapsed: 46.40 s
%%%mzn-stat: initTime=0.000383
%%%mzn-stat: solveTime=46.3088
%%%mzn-stat: solutions=78
%%%mzn-stat: variables=45
%%%mzn-stat: propagators=27
%%%mzn-stat: propagations=24514913
%%%mzn-stat: nodes=5105698
%%%mzn-stat: failures=2541200
%%%mzn-stat: restarts=2124
%%%mzn-stat: peakDepth=83
%%%mzn-stat-end
